223 5
10 10 10 10 10 

0 0 0 0 0 0 1 2 
0 0 0 0 0 0 3 3 6 12 
5 0 6 0 0 0 2 5 4 
10 0 6 0 0 0 3 11 10 7 
7 0 10 0 0 0 2 11 8 
10 0 7 0 0 0 2 10 8 
2 0 4 0 0 0 1 8 
7 0 10 0 0 0 1 9 
2 0 9 0 0 0 1 13 
1 0 8 0 0 0 1 13 
6 0 5 0 0 0 1 13 
7 0 10 0 0 0 1 13 
0 0 0 0 0 0 1 14 
0 0 0 0 0 0 4 15 16 18 19 
7 3 0 0 0 0 1 17 
1 7 0 0 0 0 1 17 
1 10 0 0 0 0 3 22 21 20 
5 9 0 0 0 0 3 22 21 20 
9 6 0 0 0 0 2 21 20 
2 7 0 0 0 0 1 23 
5 10 0 0 0 0 1 23 
8 10 0 0 0 0 1 23 
3 5 0 0 0 0 1 24 
4 8 0 0 0 0 1 25 
0 0 0 0 0 0 3 26 38 50 
0 0 0 0 0 0 3 27 32 36 
10 0 0 0 0 2 2 31 28 
9 0 0 0 0 9 2 35 29 
9 0 0 0 0 6 1 30 
2 0 0 0 0 9 1 33 
1 0 0 0 0 7 1 34 
2 0 0 0 0 10 1 33 
1 0 0 0 0 9 1 37 
10 0 0 0 0 10 2 37 57 
5 0 0 0 0 5 1 37 
1 0 0 0 0 8 1 37 
0 0 0 0 0 0 1 62 
0 0 0 0 0 0 3 39 40 48 
9 6 0 0 0 0 3 45 44 43 
2 9 0 0 0 0 1 41 
4 7 0 0 0 0 2 47 42 
5 9 0 0 0 0 2 43 133 
2 10 0 0 0 0 1 46 
1 5 0 0 0 0 1 47 
1 10 0 0 0 0 1 46 
6 4 0 0 0 0 1 49 
5 7 0 0 0 0 1 49 
8 8 0 0 0 0 1 49 
0 0 0 0 0 0 1 62 
0 0 0 0 0 0 4 51 53 54 57 
7 0 1 0 0 0 3 60 52 220 
8 0 8 0 0 0 2 59 55 
9 0 10 0 0 0 2 59 55 
4 0 6 0 0 0 1 55 
9 0 8 0 0 0 1 56 
6 0 7 0 0 0 1 58 
2 0 10 0 0 0 1 60 
4 0 6 0 0 0 1 61 
4 0 9 0 0 0 1 61 
4 0 10 0 0 0 1 61 
0 0 0 0 0 0 1 62 
0 0 0 0 0 0 5 63 85 107 119 141 
0 0 0 0 0 0 1 64 
5 5 0 0 4 0 2 67 65 
5 10 0 0 7 0 1 66 
7 5 0 0 5 0 1 68 
9 6 0 0 10 0 1 68 
5 10 0 0 7 0 2 70 69 
10 10 0 0 4 0 3 80 76 71 
8 10 0 0 10 0 3 76 75 72 
5 9 0 0 10 0 3 75 72 122 
6 10 0 0 7 0 3 78 74 73 
2 5 0 0 8 0 4 83 82 79 77 
8 5 0 0 10 0 3 83 82 77 
3 6 0 0 6 0 3 82 78 77 
1 10 0 0 6 0 2 82 81 
10 3 0 0 10 0 1 81 
10 5 0 0 9 0 1 81 
3 8 0 0 7 0 1 81 
9 6 0 0 3 0 1 83 
1 10 0 0 8 0 1 84 
5 7 0 0 10 0 1 84 
2 10 0 0 9 0 1 84 
0 0 0 0 0 0 1 223 
0 0 0 0 0 0 3 86 88 204 
2 0 0 3 0 5 2 91 87 
1 0 0 5 0 7 1 89 
3 0 0 10 0 8 1 89 
5 0 0 8 0 8 3 94 92 90 
2 0 0 10 0 9 3 105 96 93 
3 0 0 5 0 4 3 97 95 94 
7 0 0 2 0 10 3 100 99 97 
5 0 0 9 0 10 2 99 95 
9 0 0 10 0 7 3 104 103 100 
2 0 0 7 0 10 2 103 98 
3 0 0 10 0 6 2 103 98 
2 0 0 4 0 7 3 105 103 102 
1 0 0 10 0 2 1 100 
1 0 0 10 0 10 2 104 102 
3 0 0 10 0 6 1 101 
7 0 0 6 0 10 1 102 
5 0 0 10 0 10 1 106 
3 0 0 8 0 7 1 106 
6 0 0 6 0 7 1 106 
2 0 0 7 0 7 1 106 
0 0 0 0 0 0 1 223 
0 0 0 0 0 0 3 108 109 111 
4 0 0 1 0 0 2 114 110 
3 0 0 7 0 0 3 117 113 112 
8 0 0 6 0 0 2 113 112 
6 0 0 10 0 0 1 114 
7 0 0 10 0 0 2 115 221 
4 0 0 10 0 0 1 115 
4 0 0 6 0 0 1 115 
1 0 0 10 0 0 1 116 
1 0 0 10 0 0 1 118 
5 0 0 5 0 0 1 118 
0 0 0 0 0 0 5 163 175 187 199 211 
0 0 0 0 0 0 2 120 139 
1 2 0 0 5 0 2 138 121 
9 4 0 0 8 0 1 122 
5 4 0 0 6 0 2 130 123 
1 10 0 0 8 0 3 137 128 124 
3 10 0 0 7 0 2 135 125 
4 5 0 0 8 0 1 126 
9 9 0 0 10 0 3 134 133 127 
10 8 0 0 8 0 2 132 129 
8 7 0 0 6 0 2 132 129 
6 5 0 0 10 0 1 131 
9 10 0 0 5 0 2 136 220 
6 9 0 0 8 0 1 140 
3 8 0 0 9 0 1 140 
5 10 0 0 8 0 1 140 
7 10 0 0 10 0 1 140 
6 5 0 0 10 0 1 140 
3 8 0 0 10 0 1 140 
2 10 0 0 8 0 1 140 
10 8 0 0 3 0 1 140 
9 8 0 0 3 0 1 140 
0 0 0 0 0 0 1 223 
0 0 0 0 0 0 2 142 212 
4 3 0 0 0 3 1 143 
2 5 0 0 0 8 2 145 144 
3 10 0 0 0 3 1 146 
3 5 0 0 0 8 1 146 
10 6 0 0 0 6 1 147 
7 9 0 0 0 4 2 149 148 
9 9 0 0 0 9 2 152 150 
6 7 0 0 0 10 2 152 150 
9 10 0 0 0 8 4 155 154 153 151 
2 9 0 0 0 10 5 161 160 158 157 156 
8 10 0 0 0 10 5 161 160 158 157 156 
10 6 0 0 0 7 4 161 160 158 157 
7 6 0 0 0 10 4 160 158 157 156 
10 8 0 0 0 4 3 161 160 156 
4 7 0 0 0 9 1 159 
6 7 0 0 0 7 1 159 
5 9 0 0 0 9 1 159 
5 8 0 0 0 10 1 162 
8 10 0 0 0 7 1 162 
10 6 0 0 0 8 1 162 
0 0 0 0 0 0 1 223 
0 0 0 0 0 0 2 164 166 
2 0 0 0 0 2 3 167 165 181 
8 0 0 0 0 5 2 172 168 
2 0 0 0 0 5 2 173 167 
8 0 0 0 0 8 1 169 
4 0 0 0 0 10 1 169 
8 0 0 0 0 7 2 171 170 
6 0 0 0 0 10 1 174 
7 0 0 0 0 10 1 174 
5 0 0 0 0 10 1 174 
3 0 0 0 0 8 1 174 
0 0 0 0 0 0 1 223 
0 0 0 0 0 0 3 176 179 180 
8 0 0 0 9 0 1 177 
4 0 0 0 5 0 1 178 
8 0 0 0 6 0 3 183 182 181 
6 0 0 0 4 0 3 183 182 221 
8 0 0 0 7 0 1 181 
8 0 0 0 9 0 2 185 184 
1 0 0 0 10 0 2 185 184 
8 0 0 0 9 0 1 184 
6 0 0 0 10 0 1 186 
6 0 0 0 6 0 1 186 
0 0 0 0 0 0 1 223 
0 0 0 0 0 0 3 188 192 193 
3 2 0 0 0 0 2 191 189 
10 4 0 0 0 0 2 196 190 
5 7 0 0 0 0 2 197 194 
3 9 0 0 0 0 2 196 194 
8 8 0 0 0 0 2 196 194 
9 8 0 0 0 0 1 194 
1 9 0 0 0 0 1 195 
4 10 0 0 0 0 2 198 202 
7 10 0 0 0 0 1 198 
4 8 0 0 0 0 1 198 
0 0 0 0 0 0 1 223 
0 0 0 0 0 0 3 200 201 202 
6 1 0 0 0 0 3 207 204 203 
3 6 0 0 0 0 3 207 204 203 
7 7 0 0 0 0 3 209 207 204 
8 10 0 0 0 0 2 209 205 
10 6 0 0 0 0 1 205 
6 10 0 0 0 0 1 206 
3 8 0 0 0 0 1 208 
4 10 0 0 0 0 2 208 212 
8 8 0 0 0 0 1 210 
7 9 0 0 0 0 1 210 
0 0 0 0 0 0 1 223 
0 0 0 0 0 0 3 212 214 221 
1 0 0 3 0 0 1 213 
7 0 0 7 0 0 3 220 217 215 
3 0 0 10 0 0 3 220 217 215 
9 0 0 5 0 0 2 219 216 
6 0 0 4 0 0 1 218 
6 0 0 6 0 0 1 218 
1 0 0 10 0 0 1 222 
6 0 0 10 0 0 1 222 
6 0 0 10 0 0 1 222 
8 0 0 10 0 0 1 222 
0 0 0 0 0 0 1 223 
0 0 0 0 0 0 0 
